
Gurobi 7.5.2 (linux64) logging started Fri Jan 11 09:12:40 2019

Academic license - for non-commercial use only

Gurobi Optimizer version 7.5.2 build v7.5.2rc1 (linux64)
Copyright (c) 2017, Gurobi Optimization, Inc.

Read MPS format model from file p0201.mps
Reading time = 0.00 seconds
P0201: 133 rows, 201 columns, 1923 nonzeros
Optimize a model with 133 rows, 201 columns and 1923 nonzeros
Variable types: 0 continuous, 201 integer (0 binary)
Coefficient statistics:
  Matrix range     [1e+00, 6e+01]
  Objective range  [5e+01, 1e+04]
  Bounds range     [1e+00, 1e+00]
  RHS range        [1e+00, 5e+01]
Found heuristic solution: objective 9990.0000000
Presolve removed 26 rows and 24 columns
Presolve time: 0.01s
Presolved: 107 rows, 177 columns, 1445 nonzeros
Found heuristic solution: objective 9580.0000000
Variable types: 0 continuous, 177 integer (174 binary)

Root relaxation: objective 7.155000e+03, 125 iterations, 0.00 seconds

    Nodes    |    Current Node    |     Objective Bounds      |     Work
 Expl Unexpl |  Obj  Depth IntInf | Incumbent    BestBd   Gap | It/Node Time

     0     0 7155.00000    0   24 9580.00000 7155.00000  25.3%     -    0s
H    0     0                    9340.0000000 7155.00000  23.4%     -    0s
H    0     0                    8495.0000000 7155.00000  15.8%     -    0s
     0     0 7185.00000    0   22 8495.00000 7185.00000  15.4%     -    0s
H    0     0                    8115.0000000 7185.00000  11.5%     -    0s
H    0     0                    7865.0000000 7185.00000  8.65%     -    0s
     0     0 7185.00000    0   22 7865.00000 7185.00000  8.65%     -    0s
     0     0 7245.00000    0   22 7865.00000 7245.00000  7.88%     -    0s
     0     0 7245.00000    0   22 7865.00000 7245.00000  7.88%     -    0s
     0     0 7312.46305    0   72 7865.00000 7312.46305  7.03%     -    0s
     0     0 7335.85821    0   69 7865.00000 7335.85821  6.73%     -    0s
     0     0 7352.49196    0   68 7865.00000 7352.49196  6.52%     -    0s
     0     0 7357.29800    0   69 7865.00000 7357.29800  6.46%     -    0s
     0     0 7363.84636    0   68 7865.00000 7363.84636  6.37%     -    0s
     0     0 7369.16667    0   65 7865.00000 7369.16667  6.30%     -    0s
     0     0 7378.06787    0   59 7865.00000 7378.06787  6.19%     -    0s
     0     0 7386.30435    0   58 7865.00000 7386.30435  6.09%     -    0s
     0     0 7388.75000    0   58 7865.00000 7388.75000  6.06%     -    0s
     0     0 7392.89809    0   64 7865.00000 7392.89809  6.00%     -    0s
     0     0 7392.94326    0   67 7865.00000 7392.94326  6.00%     -    0s
     0     0 7436.55172    0   58 7865.00000 7436.55172  5.45%     -    0s
     0     0 7438.82813    0   55 7865.00000 7438.82813  5.42%     -    0s
     0     0 7447.43276    0   66 7865.00000 7447.43276  5.31%     -    0s
     0     0 7454.52935    0   74 7865.00000 7454.52935  5.22%     -    0s
     0     0 7459.88176    0   74 7865.00000 7459.88176  5.15%     -    0s
     0     0 7462.15247    0   73 7865.00000 7462.15247  5.12%     -    0s
     0     0 7462.32246    0   74 7865.00000 7462.32246  5.12%     -    0s
     0     0 7479.77612    0   59 7865.00000 7479.77612  4.90%     -    0s
     0     0 7480.51724    0   58 7865.00000 7480.51724  4.89%     -    0s
     0     0 7481.00000    0   59 7865.00000 7481.00000  4.88%     -    0s
     0     0 7492.38372    0   65 7865.00000 7492.38372  4.74%     -    0s
     0     0 7508.80493    0   68 7865.00000 7508.80493  4.53%     -    0s
     0     0 7510.89099    0   71 7865.00000 7510.89099  4.50%     -    0s
     0     0 7510.97158    0   71 7865.00000 7510.97158  4.50%     -    0s
     0     0 7516.27443    0   64 7865.00000 7516.27443  4.43%     -    0s
H    0     0                    7805.0000000 7516.27443  3.70%     -    0s
     0     0 7516.28012    0   68 7805.00000 7516.28012  3.70%     -    0s
     0     0 7516.67240    0   70 7805.00000 7516.67240  3.69%     -    0s
     0     0 7516.67240    0   70 7805.00000 7516.67240  3.69%     -    0s
H    0     0                    7735.0000000 7516.67240  2.82%     -    0s
     0     2 7516.67240    0   70 7735.00000 7516.67240  2.82%     -    0s
*   25     3               5    7615.0000000 7581.91070  0.43%  13.5    0s

Cutting planes:
  Gomory: 1
  Cover: 2
  MIR: 17
  Mod-K: 1

Explored 31 nodes (1055 simplex iterations) in 0.18 seconds
Thread count was 4 (of 4 available processors)

Solution count 9: 7615 7735 7805 ... 9790

Optimal solution found (tolerance 1.00e-04)
Best objective 7.615000000000e+03, best bound 7.615000000000e+03, gap 0.0000%
